This is Ipopt version 3.13.4, running with linear solver mumps.
NOTE: Other linear solvers might be more efficient (see Ipopt documentation).

Number of nonzeros in equality constraint Jacobian...:     2121
Number of nonzeros in inequality constraint Jacobian.:        0
Number of nonzeros in Lagrangian Hessian.............:        0

Total number of variables............................:      101
                     variables with only lower bounds:        0
                variables with lower and upper bounds:       95
                     variables with only upper bounds:        0
Total number of equality constraints.................:       21
Total number of inequality constraints...............:        0
        inequality constraints with only lower bounds:        0
   inequality constraints with lower and upper bounds:        0
        inequality constraints with only upper bounds:        0

iter    objective    inf_pr   inf_du lg(mu)  ||d||  lg(rg) alpha_du alpha_pr  ls
   0  1.0000000e+00 8.73e-02 0.00e+00   0.0 0.00e+00    -  0.00e+00 0.00e+00   0
   1  1.0000000e+00 1.21e-01 1.25e+02  -1.7 2.63e-01    -  5.51e-01 6.64e-01f  1
   2  1.0000000e+00 1.70e-01 1.39e+13  -0.0 4.95e+00    -  1.27e-01 2.74e-02f  1
   3  1.0000000e+00 3.97e-01 4.29e+13  -0.0 1.25e+00    -  5.71e-01 3.36e-01f  1
